02_FORMAL/tv/RIINA/Domains/FHESecurity.tv.smt2
; SPDX-License-Identifier: MPL-2.0
; Copyright (c) 2026 The RIINA Authors.
; Auto-generated from 02_FORMAL/coq/domains/FHESecurity.v (94 validations)
; Generated by scripts/generate-full-stack.py
;
; Translation Validation for FHESecurity
; Layer 9: Verifies compiler backend preserves formal semantics.
; Each assertion checks source IR ≡ target code for a proven property.

(set-logic QF_LIA)
(set-option :produce-models true)

; IR node representation
(declare-sort IRNode 0)
(declare-sort TargetNode 0)

; ops_fully_homomorphic: source semantics (matches Coq)
(declare-fun source_ops_fully_homomorphic () Bool)
(declare-fun target_ops_fully_homomorphic () Bool)
(assert (= source_ops_fully_homomorphic target_ops_fully_homomorphic))

; fhe_security_complete: source semantics (matches Coq)
(declare-fun source_fhe_security_complete () Bool)
(declare-fun target_fhe_security_complete () Bool)
(assert (= source_fhe_security_complete target_fhe_security_complete))

; noise_managed: source semantics (matches Coq)
(declare-fun source_noise_managed () Bool)
(declare-fun target_noise_managed () Bool)
(assert (= source_noise_managed target_noise_managed))

; fhe_fully_secure: source semantics (matches Coq)
(declare-fun source_fhe_fully_secure () Bool)
(declare-fun target_fhe_fully_secure () Bool)
(assert (= source_fhe_fully_secure target_fhe_fully_secure))

; riina_fhe_ops: source semantics (matches Coq)
(declare-fun source_riina_fhe_ops () Bool)
(declare-fun target_riina_fhe_ops () Bool)
(assert (= source_riina_fhe_ops target_riina_fhe_ops))

; riina_fhe_sec: source semantics (matches Coq)
(declare-fun source_riina_fhe_sec () Bool)
(declare-fun target_riina_fhe_sec () Bool)
(assert (= source_riina_fhe_sec target_riina_fhe_sec))

; riina_fhe_noise: source semantics (matches Coq)
(declare-fun source_riina_fhe_noise () Bool)
(declare-fun target_riina_fhe_noise () Bool)
(assert (= source_riina_fhe_noise target_riina_fhe_noise))

; riina_fhe: source semantics (matches Coq)
(declare-fun source_riina_fhe () Bool)
(declare-fun target_riina_fhe () Bool)
(assert (= source_riina_fhe target_riina_fhe))

; negligible_threshold: source semantics (matches Coq)
(declare-fun source_negligible_threshold () Bool)
(declare-fun target_negligible_threshold () Bool)
(assert (= source_negligible_threshold target_negligible_threshold))

; riina_advantage: source semantics (matches Coq)
(declare-fun source_riina_advantage () Bool)
(declare-fun target_riina_advantage () Bool)
(assert (= source_riina_advantage target_riina_advantage))

; indcpa_secure: source semantics (matches Coq)
(declare-fun source_indcpa_secure () Bool)
(declare-fun target_indcpa_secure () Bool)
(assert (= source_indcpa_secure target_indcpa_secure))

; riina_indcpa: source semantics (matches Coq)
(declare-fun source_riina_indcpa () Bool)
(declare-fun target_riina_indcpa () Bool)
(assert (= source_riina_indcpa target_riina_indcpa))

; semantic_secure: source semantics (matches Coq)
(declare-fun source_semantic_secure () Bool)
(declare-fun target_semantic_secure () Bool)
(assert (= source_semantic_secure target_semantic_secure))

; riina_semantic: source semantics (matches Coq)
(declare-fun source_riina_semantic () Bool)
(declare-fun target_riina_semantic () Bool)
(assert (= source_riina_semantic target_riina_semantic))

; hom_add_correct: source semantics (matches Coq)
(declare-fun source_hom_add_correct () Bool)
(declare-fun target_hom_add_correct () Bool)
(assert (= source_hom_add_correct target_hom_add_correct))

; riina_hom_add: source semantics (matches Coq)
(declare-fun source_riina_hom_add () Bool)
(declare-fun target_riina_hom_add () Bool)
(assert (= source_riina_hom_add target_riina_hom_add))

; hom_mult_correct: source semantics (matches Coq)
(declare-fun source_hom_mult_correct () Bool)
(declare-fun target_hom_mult_correct () Bool)
(assert (= source_hom_mult_correct target_hom_mult_correct))

; riina_hom_mult: source semantics (matches Coq)
(declare-fun source_riina_hom_mult () Bool)
(declare-fun target_riina_hom_mult () Bool)
(assert (= source_riina_hom_mult target_riina_hom_mult))

; hom_ops_valid: source semantics (matches Coq)
(declare-fun source_hom_ops_valid () Bool)
(declare-fun target_hom_ops_valid () Bool)
(assert (= source_hom_ops_valid target_hom_ops_valid))

; riina_hom_ops: source semantics (matches Coq)
(declare-fun source_riina_hom_ops () Bool)
(declare-fun target_riina_hom_ops () Bool)
(assert (= source_riina_hom_ops target_riina_hom_ops))

; noise_after_additions: source semantics (matches Coq)
(declare-fun source_noise_after_additions () Bool)
(declare-fun target_noise_after_additions () Bool)
(assert (= source_noise_after_additions target_noise_after_additions))

; noise_after_multiplications: source semantics (matches Coq)
(declare-fun source_noise_after_multiplications () Bool)
(declare-fun target_noise_after_multiplications () Bool)
(assert (= source_noise_after_multiplications target_noise_after_multiplications))

; noise_safe: source semantics (matches Coq)
(declare-fun source_noise_safe () Bool)
(declare-fun target_noise_safe () Bool)
(assert (= source_noise_safe target_noise_safe))

; riina_noise_model: source semantics (matches Coq)
(declare-fun source_riina_noise_model () Bool)
(declare-fun target_riina_noise_model () Bool)
(assert (= source_riina_noise_model target_riina_noise_model))

; noise_bound_valid: source semantics (matches Coq)
(declare-fun source_noise_bound_valid () Bool)
(declare-fun target_noise_bound_valid () Bool)
(assert (= source_noise_bound_valid target_noise_bound_valid))

; riina_noise_bound: source semantics (matches Coq)
(declare-fun source_riina_noise_bound () Bool)
(declare-fun target_riina_noise_bound () Bool)
(assert (= source_riina_noise_bound target_riina_noise_bound))

; bootstrapping_correct: source semantics (matches Coq)
(declare-fun source_bootstrapping_correct () Bool)
(declare-fun target_bootstrapping_correct () Bool)
(assert (= source_bootstrapping_correct target_bootstrapping_correct))

; riina_bootstrap: source semantics (matches Coq)
(declare-fun source_riina_bootstrap () Bool)
(declare-fun target_riina_bootstrap () Bool)
(assert (= source_riina_bootstrap target_riina_bootstrap))

; unlimited_fhe_valid: source semantics (matches Coq)
(declare-fun source_unlimited_fhe_valid () Bool)
(declare-fun target_unlimited_fhe_valid () Bool)
(assert (= source_unlimited_fhe_valid target_unlimited_fhe_valid))

; riina_unlimited: source semantics (matches Coq)
(declare-fun source_riina_unlimited () Bool)
(declare-fun target_riina_unlimited () Bool)
(assert (= source_riina_unlimited target_riina_unlimited))

; keygen_secure: source semantics (matches Coq)
(declare-fun source_keygen_secure () Bool)
(declare-fun target_keygen_secure () Bool)
(assert (= source_keygen_secure target_keygen_secure))

; riina_keygen: source semantics (matches Coq)
(declare-fun source_riina_keygen () Bool)
(declare-fun target_riina_keygen () Bool)
(assert (= source_riina_keygen target_riina_keygen))

; keypair_valid: source semantics (matches Coq)
(declare-fun source_keypair_valid () Bool)
(declare-fun target_keypair_valid () Bool)
(assert (= source_keypair_valid target_keypair_valid))

; riina_keypair: source semantics (matches Coq)
(declare-fun source_riina_keypair () Bool)
(declare-fun target_riina_keypair () Bool)
(assert (= source_riina_keypair target_riina_keypair))

; ciphertext_valid: source semantics (matches Coq)
(declare-fun source_ciphertext_valid () Bool)
(declare-fun target_ciphertext_valid () Bool)
(assert (= source_ciphertext_valid target_ciphertext_valid))

; riina_ciphertext: source semantics (matches Coq)
(declare-fun source_riina_ciphertext () Bool)
(declare-fun target_riina_ciphertext () Bool)
(assert (= source_riina_ciphertext target_riina_ciphertext))

; op_preserves_validity: source semantics (matches Coq)
(declare-fun source_op_preserves_validity () Bool)
(declare-fun target_op_preserves_validity () Bool)
(assert (= source_op_preserves_validity target_op_preserves_validity))

; complete_fhe_secure: source semantics (matches Coq)
(declare-fun source_complete_fhe_secure () Bool)
(declare-fun target_complete_fhe_secure () Bool)
(assert (= source_complete_fhe_secure target_complete_fhe_secure))

; riina_complete_fhe: source semantics (matches Coq)
(declare-fun source_riina_complete_fhe () Bool)
(declare-fun target_riina_complete_fhe () Bool)
(assert (= source_riina_complete_fhe target_riina_complete_fhe))

; circular_secure: source semantics (matches Coq)
(declare-fun source_circular_secure () Bool)
(declare-fun target_circular_secure () Bool)
(assert (= source_circular_secure target_circular_secure))

; riina_circular: source semantics (matches Coq)
(declare-fun source_riina_circular () Bool)
(declare-fun target_riina_circular () Bool)
(assert (= source_riina_circular target_riina_circular))

; lwe_secure: source semantics (matches Coq)
(declare-fun source_lwe_secure () Bool)
(declare-fun target_lwe_secure () Bool)
(assert (= source_lwe_secure target_lwe_secure))

; riina_lwe: source semantics (matches Coq)
(declare-fun source_riina_lwe () Bool)
(declare-fun target_riina_lwe () Bool)
(assert (= source_riina_lwe target_riina_lwe))

; rlwe_secure: source semantics (matches Coq)
(declare-fun source_rlwe_secure () Bool)
(declare-fun target_rlwe_secure () Bool)
(assert (= source_rlwe_secure target_rlwe_secure))

; riina_rlwe: source semantics (matches Coq)
(declare-fun source_riina_rlwe () Bool)
(declare-fun target_riina_rlwe () Bool)
(assert (= source_riina_rlwe target_riina_rlwe))

; andb_true_iff: translation preserves property (matches Coq: Lemma)
(declare-fun source_andb_true_iff () Bool)
(declare-fun target_andb_true_iff () Bool)
(assert (= source_andb_true_iff target_andb_true_iff))

; andb3_true_iff: translation preserves property (matches Coq: Lemma)
(declare-fun source_andb3_true_iff () Bool)
(declare-fun target_andb3_true_iff () Bool)
(assert (= source_andb3_true_iff target_andb3_true_iff))

; negb_true_iff: translation preserves property (matches Coq: Lemma)
(declare-fun source_negb_true_iff () Bool)
(declare-fun target_negb_true_iff () Bool)
(assert (= source_negb_true_iff target_negb_true_iff))

; leb_le: translation preserves property (matches Coq: Lemma)
(declare-fun source_leb_le () Bool)
(declare-fun target_leb_le () Bool)
(assert (= source_leb_le target_leb_le))

; ltb_lt: translation preserves property (matches Coq: Lemma)
(declare-fun source_ltb_lt () Bool)
(declare-fun target_ltb_lt () Bool)
(assert (= source_ltb_lt target_ltb_lt))

; mult_le_compat: translation preserves property (matches Coq: Lemma)
(declare-fun source_mult_le_compat () Bool)
(declare-fun target_mult_le_compat () Bool)
(assert (= source_mult_le_compat target_mult_le_compat))

; add_le_compat: translation preserves property (matches Coq: Lemma)
(declare-fun source_add_le_compat () Bool)
(declare-fun target_add_le_compat () Bool)
(assert (= source_add_le_compat target_add_le_compat))

; FHE_001: translation preserves property (matches Coq: Theorem)
(declare-fun source_FHE_001 () Bool)
(declare-fun target_FHE_001 () Bool)
(assert (= source_FHE_001 target_FHE_001))

; FHE_002: translation preserves property (matches Coq: Theorem)
(declare-fun source_FHE_002 () Bool)
(declare-fun target_FHE_002 () Bool)
(assert (= source_FHE_002 target_FHE_002))

; FHE_003: translation preserves property (matches Coq: Theorem)
(declare-fun source_FHE_003 () Bool)
(declare-fun target_FHE_003 () Bool)
(assert (= source_FHE_003 target_FHE_003))

; FHE_004: translation preserves property (matches Coq: Theorem)
(declare-fun source_FHE_004 () Bool)
(declare-fun target_FHE_004 () Bool)
(assert (= source_FHE_004 target_FHE_004))

; FHE_005: translation preserves property (matches Coq: Theorem)
(declare-fun source_FHE_005 () Bool)
(declare-fun target_FHE_005 () Bool)
(assert (= source_FHE_005 target_FHE_005))

; FHE_006: translation preserves property (matches Coq: Theorem)
(declare-fun source_FHE_006 () Bool)
(declare-fun target_FHE_006 () Bool)
(assert (= source_FHE_006 target_FHE_006))

; FHE_007: translation preserves property (matches Coq: Theorem)
(declare-fun source_FHE_007 () Bool)
(declare-fun target_FHE_007 () Bool)
(assert (= source_FHE_007 target_FHE_007))

; FHE_008: translation preserves property (matches Coq: Theorem)
(declare-fun source_FHE_008 () Bool)
(declare-fun target_FHE_008 () Bool)
(assert (= source_FHE_008 target_FHE_008))

; FHE_009: translation preserves property (matches Coq: Theorem)
(declare-fun source_FHE_009 () Bool)
(declare-fun target_FHE_009 () Bool)
(assert (= source_FHE_009 target_FHE_009))

; FHE_010: translation preserves property (matches Coq: Theorem)
(declare-fun source_FHE_010 () Bool)
(declare-fun target_FHE_010 () Bool)
(assert (= source_FHE_010 target_FHE_010))

; FHE_011: translation preserves property (matches Coq: Theorem)
(declare-fun source_FHE_011 () Bool)
(declare-fun target_FHE_011 () Bool)
(assert (= source_FHE_011 target_FHE_011))

; FHE_012: translation preserves property (matches Coq: Theorem)
(declare-fun source_FHE_012 () Bool)
(declare-fun target_FHE_012 () Bool)
(assert (= source_FHE_012 target_FHE_012))

; FHE_013: translation preserves property (matches Coq: Theorem)
(declare-fun source_FHE_013 () Bool)
(declare-fun target_FHE_013 () Bool)
(assert (= source_FHE_013 target_FHE_013))

; FHE_014: translation preserves property (matches Coq: Theorem)
(declare-fun source_FHE_014 () Bool)
(declare-fun target_FHE_014 () Bool)
(assert (= source_FHE_014 target_FHE_014))

; FHE_015: translation preserves property (matches Coq: Theorem)
(declare-fun source_FHE_015 () Bool)
(declare-fun target_FHE_015 () Bool)
(assert (= source_FHE_015 target_FHE_015))

; FHE_016: translation preserves property (matches Coq: Theorem)
(declare-fun source_FHE_016 () Bool)
(declare-fun target_FHE_016 () Bool)
(assert (= source_FHE_016 target_FHE_016))

; FHE_017: translation preserves property (matches Coq: Theorem)
(declare-fun source_FHE_017 () Bool)
(declare-fun target_FHE_017 () Bool)
(assert (= source_FHE_017 target_FHE_017))

; FHE_018: translation preserves property (matches Coq: Theorem)
(declare-fun source_FHE_018 () Bool)
(declare-fun target_FHE_018 () Bool)
(assert (= source_FHE_018 target_FHE_018))

; FHE_019: translation preserves property (matches Coq: Theorem)
(declare-fun source_FHE_019 () Bool)
(declare-fun target_FHE_019 () Bool)
(assert (= source_FHE_019 target_FHE_019))

; FHE_020: translation preserves property (matches Coq: Theorem)
(declare-fun source_FHE_020 () Bool)
(declare-fun target_FHE_020 () Bool)
(assert (= source_FHE_020 target_FHE_020))

; FHE_021: translation preserves property (matches Coq: Theorem)
(declare-fun source_FHE_021 () Bool)
(declare-fun target_FHE_021 () Bool)
(assert (= source_FHE_021 target_FHE_021))

; FHE_022: translation preserves property (matches Coq: Theorem)
(declare-fun source_FHE_022 () Bool)
(declare-fun target_FHE_022 () Bool)
(assert (= source_FHE_022 target_FHE_022))

; FHE_023: translation preserves property (matches Coq: Theorem)
(declare-fun source_FHE_023 () Bool)
(declare-fun target_FHE_023 () Bool)
(assert (= source_FHE_023 target_FHE_023))

; FHE_024: translation preserves property (matches Coq: Theorem)
(declare-fun source_FHE_024 () Bool)
(declare-fun target_FHE_024 () Bool)
(assert (= source_FHE_024 target_FHE_024))

; FHE_025_complete: translation preserves property (matches Coq: Theorem)
(declare-fun source_FHE_025_complete () Bool)
(declare-fun target_FHE_025_complete () Bool)
(assert (= source_FHE_025_complete target_FHE_025_complete))

; indcpa_001_riina_secure: translation preserves property (matches Coq: Theorem)
(declare-fun source_indcpa_001_riina_secure () Bool)
(declare-fun target_indcpa_001_riina_secure () Bool)
(assert (= source_indcpa_001_riina_secure target_indcpa_001_riina_secure))

; indcpa_002_key_size_sufficient: translation preserves property (matches Coq: Theorem)
(declare-fun source_indcpa_002_key_size_sufficient () Bool)
(declare-fun target_indcpa_002_key_size_sufficient () Bool)
(assert (= source_indcpa_002_key_size_sufficient target_indcpa_002_key_size_sufficient))

; indcpa_003_has_oracle: translation preserves property (matches Coq: Theorem)
(declare-fun source_indcpa_003_has_oracle () Bool)
(declare-fun target_indcpa_003_has_oracle () Bool)
(assert (= source_indcpa_003_has_oracle target_indcpa_003_has_oracle))

; indcpa_004_negligible_advantage: translation preserves property (matches Coq: Theorem)
(declare-fun source_indcpa_004_negligible_advantage () Bool)
(declare-fun target_indcpa_004_negligible_advantage () Bool)
(assert (= source_indcpa_004_negligible_advantage target_indcpa_004_negligible_advantage))

; ss_001_riina_semantic_secure: translation preserves property (matches Coq: Theorem)
(declare-fun source_ss_001_riina_semantic_secure () Bool)
(declare-fun target_ss_001_riina_semantic_secure () Bool)
(assert (= source_ss_001_riina_semantic_secure target_ss_001_riina_semantic_secure))

; ss_002_implies_indistinguishable: translation preserves property (matches Coq: Theorem)
(declare-fun source_ss_002_implies_indistinguishable () Bool)
(declare-fun target_ss_002_implies_indistinguishable () Bool)
(assert (= source_ss_002_implies_indistinguishable target_ss_002_implies_indistinguishable))

; ss_003_implies_randomized: translation preserves property (matches Coq: Theorem)
(declare-fun source_ss_003_implies_randomized () Bool)
(declare-fun target_ss_003_implies_randomized () Bool)
(assert (= source_ss_003_implies_randomized target_ss_003_implies_randomized))

; ss_004_ciphertext_expansion: translation preserves property (matches Coq: Theorem)
(declare-fun source_ss_004_ciphertext_expansion () Bool)
(declare-fun target_ss_004_ciphertext_expansion () Bool)
(assert (= source_ss_004_ciphertext_expansion target_ss_004_ciphertext_expansion))

; hadd_001_riina_correct: translation preserves property (matches Coq: Theorem)
(declare-fun source_hadd_001_riina_correct () Bool)
(declare-fun target_hadd_001_riina_correct () Bool)
(assert (= source_hadd_001_riina_correct target_hadd_001_riina_correct))

; hadd_002_preserves_structure: translation preserves property (matches Coq: Theorem)
(declare-fun source_hadd_002_preserves_structure () Bool)
(declare-fun target_hadd_002_preserves_structure () Bool)
(assert (= source_hadd_002_preserves_structure target_hadd_002_preserves_structure))

; hadd_003_modulus_relation: translation preserves property (matches Coq: Theorem)
(declare-fun source_hadd_003_modulus_relation () Bool)
(declare-fun target_hadd_003_modulus_relation () Bool)
(assert (= source_hadd_003_modulus_relation target_hadd_003_modulus_relation))

; hmult_001_riina_correct: translation preserves property (matches Coq: Theorem)
(declare-fun source_hmult_001_riina_correct () Bool)
(declare-fun target_hmult_001_riina_correct () Bool)
(assert (= source_hmult_001_riina_correct target_hmult_001_riina_correct))

; hmult_002_relinearization: translation preserves property (matches Coq: Theorem)
(declare-fun source_hmult_002_relinearization () Bool)
(declare-fun target_hmult_002_relinearization () Bool)
(assert (= source_hmult_002_relinearization target_hmult_002_relinearization))

; hmult_003_key_switching: translation preserves property (matches Coq: Theorem)
(declare-fun source_hmult_003_key_switching () Bool)
(declare-fun target_hmult_003_key_switching () Bool)
(assert (= source_hmult_003_key_switching target_hmult_003_key_switching))

; hops_001_riina_valid: translation preserves property (matches Coq: Theorem)
(declare-fun source_hops_001_riina_valid () Bool)
(declare-fun target_hops_001_riina_valid () Bool)
(assert (= source_hops_001_riina_valid target_hops_001_riina_valid))

; hops_002_addition_correct: translation preserves property (matches Coq: Theorem)
(declare-fun source_hops_002_addition_correct () Bool)
(declare-fun target_hops_002_addition_correct () Bool)
(assert (= source_hops_002_addition_correct target_hops_002_addition_correct))

; hops_003_multiplication_correct: translation preserves property (matches Coq: Theorem)
(declare-fun source_hops_003_multiplication_correct () Bool)
(declare-fun target_hops_003_multiplication_correct () Bool)
(assert (= source_hops_003_multiplication_correct target_hops_003_multiplication_correct))

; hops_004_composition: translation preserves property (matches Coq: Theorem)
(declare-fun source_hops_004_composition () Bool)
(declare-fun target_hops_004_composition () Bool)
(assert (= source_hops_004_composition target_hops_004_composition))

; noise_001_initial_safe: translation preserves property (matches Coq: Theorem)
(declare-fun source_noise_001_initial_safe () Bool)
(declare-fun target_noise_001_initial_safe () Bool)
(assert (= source_noise_001_initial_safe target_noise_001_initial_safe))

; noise_002_100_additions_safe: translation preserves property (matches Coq: Theorem)
(declare-fun source_noise_002_100_additions_safe () Bool)
(declare-fun target_noise_002_100_additions_safe () Bool)
(assert (= source_noise_002_100_additions_safe target_noise_002_100_additions_safe))

; noise_003_10_multiplications_safe: translation preserves property (matches Coq: Theorem)
(declare-fun source_noise_003_10_multiplications_safe () Bool)
(declare-fun target_noise_003_10_multiplications_safe () Bool)
(assert (= source_noise_003_10_multiplications_safe target_noise_003_10_multiplications_safe))

; noise_004_add_linear_growth: translation preserves property (matches Coq: Theorem)
(declare-fun source_noise_004_add_linear_growth () Bool)
(declare-fun target_noise_004_add_linear_growth () Bool)
(assert (= source_noise_004_add_linear_growth target_noise_004_add_linear_growth))

; noise_005_zero_additions: translation preserves property (matches Coq: Theorem)
(declare-fun source_noise_005_zero_additions () Bool)
(declare-fun target_noise_005_zero_additions () Bool)
(assert (= source_noise_005_zero_additions target_noise_005_zero_additions))

; nb_001_riina_valid: translation preserves property (matches Coq: Theorem)
(declare-fun source_nb_001_riina_valid () Bool)
(declare-fun target_nb_001_riina_valid () Bool)
(assert (= source_nb_001_riina_valid target_nb_001_riina_valid))

; nb_002_additions_safe: translation preserves property (matches Coq: Theorem)
(declare-fun source_nb_002_additions_safe () Bool)
(declare-fun target_nb_002_additions_safe () Bool)
(assert (= source_nb_002_additions_safe target_nb_002_additions_safe))

; nb_003_multiplications_safe: translation preserves property (matches Coq: Theorem)
(declare-fun source_nb_003_multiplications_safe () Bool)
(declare-fun target_nb_003_multiplications_safe () Bool)
(assert (= source_nb_003_multiplications_safe target_nb_003_multiplications_safe))

; boot_001_riina_correct: translation preserves property (matches Coq: Theorem)
(declare-fun source_boot_001_riina_correct () Bool)
(declare-fun target_boot_001_riina_correct () Bool)
(assert (= source_boot_001_riina_correct target_boot_001_riina_correct))

; boot_002_reduces_noise: translation preserves property (matches Coq: Theorem)
(declare-fun source_boot_002_reduces_noise () Bool)
(declare-fun target_boot_002_reduces_noise () Bool)
(assert (= source_boot_002_reduces_noise target_boot_002_reduces_noise))

; boot_003_preserves_message: translation preserves property (matches Coq: Theorem)
(declare-fun source_boot_003_preserves_message () Bool)
(declare-fun target_boot_003_preserves_message () Bool)
(assert (= source_boot_003_preserves_message target_boot_003_preserves_message))

; boot_004_polynomial_time: translation preserves property (matches Coq: Theorem)
(declare-fun source_boot_004_polynomial_time () Bool)
(declare-fun target_boot_004_polynomial_time () Bool)
(assert (= source_boot_004_polynomial_time target_boot_004_polynomial_time))

; boot_005_noise_reduction: translation preserves property (matches Coq: Theorem)
(declare-fun source_boot_005_noise_reduction () Bool)
(declare-fun target_boot_005_noise_reduction () Bool)
(assert (= source_boot_005_noise_reduction target_boot_005_noise_reduction))

; ufhe_001_riina_valid: translation preserves property (matches Coq: Theorem)
(declare-fun source_ufhe_001_riina_valid () Bool)
(declare-fun target_ufhe_001_riina_valid () Bool)
(assert (= source_ufhe_001_riina_valid target_ufhe_001_riina_valid))

; ufhe_002_bootstrap_correct: translation preserves property (matches Coq: Theorem)
(declare-fun source_ufhe_002_bootstrap_correct () Bool)
(declare-fun target_ufhe_002_bootstrap_correct () Bool)
(assert (= source_ufhe_002_bootstrap_correct target_ufhe_002_bootstrap_correct))

; kg_001_riina_secure: translation preserves property (matches Coq: Theorem)
(declare-fun source_kg_001_riina_secure () Bool)
(declare-fun target_kg_001_riina_secure () Bool)
(assert (= source_kg_001_riina_secure target_kg_001_riina_secure))

; kg_002_security_parameter: translation preserves property (matches Coq: Theorem)
(declare-fun source_kg_002_security_parameter () Bool)
(declare-fun target_kg_002_security_parameter () Bool)
(assert (= source_kg_002_security_parameter target_kg_002_security_parameter))

; kg_003_polynomial_degree: translation preserves property (matches Coq: Theorem)
(declare-fun source_kg_003_polynomial_degree () Bool)
(declare-fun target_kg_003_polynomial_degree () Bool)
(assert (= source_kg_003_polynomial_degree target_kg_003_polynomial_degree))

; kg_004_error_distribution: translation preserves property (matches Coq: Theorem)
(declare-fun source_kg_004_error_distribution () Bool)
(declare-fun target_kg_004_error_distribution () Bool)
(assert (= source_kg_004_error_distribution target_kg_004_error_distribution))

; kg_005_modulus_bits: translation preserves property (matches Coq: Theorem)
(declare-fun source_kg_005_modulus_bits () Bool)
(declare-fun target_kg_005_modulus_bits () Bool)
(assert (= source_kg_005_modulus_bits target_kg_005_modulus_bits))

; kp_001_riina_valid: translation preserves property (matches Coq: Theorem)
(declare-fun source_kp_001_riina_valid () Bool)
(declare-fun target_kp_001_riina_valid () Bool)
(assert (= source_kp_001_riina_valid target_kp_001_riina_valid))

; kp_002_secure_params: translation preserves property (matches Coq: Theorem)
(declare-fun source_kp_002_secure_params () Bool)
(declare-fun target_kp_002_secure_params () Bool)
(assert (= source_kp_002_secure_params target_kp_002_secure_params))

; ct_001_riina_valid: translation preserves property (matches Coq: Theorem)
(declare-fun source_ct_001_riina_valid () Bool)
(declare-fun target_ct_001_riina_valid () Bool)
(assert (= source_ct_001_riina_valid target_ct_001_riina_valid))

; ct_002_valid_encryption: translation preserves property (matches Coq: Theorem)
(declare-fun source_ct_002_valid_encryption () Bool)
(declare-fun target_ct_002_valid_encryption () Bool)
(assert (= source_ct_002_valid_encryption target_ct_002_valid_encryption))

; ct_003_safe_noise: translation preserves property (matches Coq: Theorem)
(declare-fun source_ct_003_safe_noise () Bool)
(declare-fun target_ct_003_safe_noise () Bool)
(assert (= source_ct_003_safe_noise target_ct_003_safe_noise))

; ct_004_positive_level: translation preserves property (matches Coq: Theorem)
(declare-fun source_ct_004_positive_level () Bool)
(declare-fun target_ct_004_positive_level () Bool)
(assert (= source_ct_004_positive_level target_ct_004_positive_level))

; cao_001_valid_preserves: translation preserves property (matches Coq: Theorem)
(declare-fun source_cao_001_valid_preserves () Bool)
(declare-fun target_cao_001_valid_preserves () Bool)
(assert (= source_cao_001_valid_preserves target_cao_001_valid_preserves))

; cao_002_result_valid: translation preserves property (matches Coq: Theorem)
(declare-fun source_cao_002_result_valid () Bool)
(declare-fun target_cao_002_result_valid () Bool)
(assert (= source_cao_002_result_valid target_cao_002_result_valid))

; cfhe_001_riina_secure: translation preserves property (matches Coq: Theorem)
(declare-fun source_cfhe_001_riina_secure () Bool)
(declare-fun target_cfhe_001_riina_secure () Bool)
(assert (= source_cfhe_001_riina_secure target_cfhe_001_riina_secure))

; cfhe_002_config_secure: translation preserves property (matches Coq: Theorem)
(declare-fun source_cfhe_002_config_secure () Bool)
(declare-fun target_cfhe_002_config_secure () Bool)
(assert (= source_cfhe_002_config_secure target_cfhe_002_config_secure))

; cfhe_003_keygen_secure: translation preserves property (matches Coq: Theorem)
(declare-fun source_cfhe_003_keygen_secure () Bool)
(declare-fun target_cfhe_003_keygen_secure () Bool)
(assert (= source_cfhe_003_keygen_secure target_cfhe_003_keygen_secure))

; cfhe_004_indcpa_secure: translation preserves property (matches Coq: Theorem)
(declare-fun source_cfhe_004_indcpa_secure () Bool)
(declare-fun target_cfhe_004_indcpa_secure () Bool)
(assert (= source_cfhe_004_indcpa_secure target_cfhe_004_indcpa_secure))

; cfhe_005_bootstrap_correct: translation preserves property (matches Coq: Theorem)
(declare-fun source_cfhe_005_bootstrap_correct () Bool)
(declare-fun target_cfhe_005_bootstrap_correct () Bool)
(assert (= source_cfhe_005_bootstrap_correct target_cfhe_005_bootstrap_correct))

; cfhe_006_ops_valid: translation preserves property (matches Coq: Theorem)
(declare-fun source_cfhe_006_ops_valid () Bool)
(declare-fun target_cfhe_006_ops_valid () Bool)
(assert (= source_cfhe_006_ops_valid target_cfhe_006_ops_valid))

; cfhe_007_pq_safe: translation preserves property (matches Coq: Theorem)
(declare-fun source_cfhe_007_pq_safe () Bool)
(declare-fun target_cfhe_007_pq_safe () Bool)
(assert (= source_cfhe_007_pq_safe target_cfhe_007_pq_safe))

; cfhe_008_arbitrary_depth: translation preserves property (matches Coq: Theorem)
(declare-fun source_cfhe_008_arbitrary_depth () Bool)
(declare-fun target_cfhe_008_arbitrary_depth () Bool)
(assert (= source_cfhe_008_arbitrary_depth target_cfhe_008_arbitrary_depth))

; cfhe_009_semantic_secure: translation preserves property (matches Coq: Theorem)
(declare-fun source_cfhe_009_semantic_secure () Bool)
(declare-fun target_cfhe_009_semantic_secure () Bool)
(assert (= source_cfhe_009_semantic_secure target_cfhe_009_semantic_secure))

; cfhe_010_noise_managed: translation preserves property (matches Coq: Theorem)
(declare-fun source_cfhe_010_noise_managed () Bool)
(declare-fun target_cfhe_010_noise_managed () Bool)
(assert (= source_cfhe_010_noise_managed target_cfhe_010_noise_managed))

; circ_001_riina_secure: translation preserves property (matches Coq: Theorem)
(declare-fun source_circ_001_riina_secure () Bool)
(declare-fun target_circ_001_riina_secure () Bool)
(assert (= source_circ_001_riina_secure target_circ_001_riina_secure))

; circ_002_key_encryption: translation preserves property (matches Coq: Theorem)
(declare-fun source_circ_002_key_encryption () Bool)
(declare-fun target_circ_002_key_encryption () Bool)
(assert (= source_circ_002_key_encryption target_circ_002_key_encryption))

; lwe_001_riina_secure: translation preserves property (matches Coq: Theorem)
(declare-fun source_lwe_001_riina_secure () Bool)
(declare-fun target_lwe_001_riina_secure () Bool)
(assert (= source_lwe_001_riina_secure target_lwe_001_riina_secure))

; lwe_002_dimension: translation preserves property (matches Coq: Theorem)
(declare-fun source_lwe_002_dimension () Bool)
(declare-fun target_lwe_002_dimension () Bool)
(assert (= source_lwe_002_dimension target_lwe_002_dimension))

; rlwe_001_riina_secure: translation preserves property (matches Coq: Theorem)
(declare-fun source_rlwe_001_riina_secure () Bool)
(declare-fun target_rlwe_001_riina_secure () Bool)
(assert (= source_rlwe_001_riina_secure target_rlwe_001_riina_secure))

; rlwe_002_ring_degree: translation preserves property (matches Coq: Theorem)
(declare-fun source_rlwe_002_ring_degree () Bool)
(declare-fun target_rlwe_002_ring_degree () Bool)
(assert (= source_rlwe_002_ring_degree target_rlwe_002_ring_degree))

; Verify all translation validations are satisfiable
(check-sat)
(exit)
